c CNF file corresponding to a (partial) station packing problem.
p cnf 4968 229
1 2 3 4 5 6 7 8 9 10 11 12 13 14 0
-1 -2 0
-1 -3 0
-1 -4 0
-1 -5 0
-1 -6 0
-1 -7 0
-1 -8 0
-1 -9 0
-1 -10 0
-1 -11 0
-1 -12 0
-1 -13 0
-1 -14 0
-2 -3 0
-2 -4 0
-2 -5 0
-2 -6 0
-2 -7 0
-2 -8 0
-2 -9 0
-2 -10 0
-2 -11 0
-2 -12 0
-2 -13 0
-2 -14 0
-3 -4 0
-3 -5 0
-3 -6 0
-3 -7 0
-3 -8 0
-3 -9 0
-3 -10 0
-3 -11 0
-3 -12 0
-3 -13 0
-3 -14 0
-4 -5 0
-4 -6 0
-4 -7 0
-4 -8 0
-4 -9 0
-4 -10 0
-4 -11 0
-4 -12 0
-4 -13 0
-4 -14 0
-5 -6 0
-5 -7 0
-5 -8 0
-5 -9 0
-5 -10 0
-5 -11 0
-5 -12 0
-5 -13 0
-5 -14 0
-6 -7 0
-6 -8 0
-6 -9 0
-6 -10 0
-6 -11 0
-6 -12 0
-6 -13 0
-6 -14 0
-7 -8 0
-7 -9 0
-7 -10 0
-7 -11 0
-7 -12 0
-7 -13 0
-7 -14 0
-8 -9 0
-8 -10 0
-8 -11 0
-8 -12 0
-8 -13 0
-8 -14 0
-9 -10 0
-9 -11 0
-9 -12 0
-9 -13 0
-9 -14 0
-10 -11 0
-10 -12 0
-10 -13 0
-10 -14 0
-11 -12 0
-11 -13 0
-11 -14 0
-12 -13 0
-12 -14 0
-13 -14 0
4952 4953 4954 4955 4956 4957 4958 4959 4960 4961 4962 4963 4964 4965 4966 4967 4968 0
-4952 -4953 0
-4952 -4954 0
-4952 -4955 0
-4952 -4956 0
-4952 -4957 0
-4952 -4958 0
-4952 -4959 0
-4952 -4960 0
-4952 -4961 0
-4952 -4962 0
-4952 -4963 0
-4952 -4964 0
-4952 -4965 0
-4952 -4966 0
-4952 -4967 0
-4952 -4968 0
-4953 -4954 0
-4953 -4955 0
-4953 -4956 0
-4953 -4957 0
-4953 -4958 0
-4953 -4959 0
-4953 -4960 0
-4953 -4961 0
-4953 -4962 0
-4953 -4963 0
-4953 -4964 0
-4953 -4965 0
-4953 -4966 0
-4953 -4967 0
-4953 -4968 0
-4954 -4955 0
-4954 -4956 0
-4954 -4957 0
-4954 -4958 0
-4954 -4959 0
-4954 -4960 0
-4954 -4961 0
-4954 -4962 0
-4954 -4963 0
-4954 -4964 0
-4954 -4965 0
-4954 -4966 0
-4954 -4967 0
-4954 -4968 0
-4955 -4956 0
-4955 -4957 0
-4955 -4958 0
-4955 -4959 0
-4955 -4960 0
-4955 -4961 0
-4955 -4962 0
-4955 -4963 0
-4955 -4964 0
-4955 -4965 0
-4955 -4966 0
-4955 -4967 0
-4955 -4968 0
-4956 -4957 0
-4956 -4958 0
-4956 -4959 0
-4956 -4960 0
-4956 -4961 0
-4956 -4962 0
-4956 -4963 0
-4956 -4964 0
-4956 -4965 0
-4956 -4966 0
-4956 -4967 0
-4956 -4968 0
-4957 -4958 0
-4957 -4959 0
-4957 -4960 0
-4957 -4961 0
-4957 -4962 0
-4957 -4963 0
-4957 -4964 0
-4957 -4965 0
-4957 -4966 0
-4957 -4967 0
-4957 -4968 0
-4958 -4959 0
-4958 -4960 0
-4958 -4961 0
-4958 -4962 0
-4958 -4963 0
-4958 -4964 0
-4958 -4965 0
-4958 -4966 0
-4958 -4967 0
-4958 -4968 0
-4959 -4960 0
-4959 -4961 0
-4959 -4962 0
-4959 -4963 0
-4959 -4964 0
-4959 -4965 0
-4959 -4966 0
-4959 -4967 0
-4959 -4968 0
-4960 -4961 0
-4960 -4962 0
-4960 -4963 0
-4960 -4964 0
-4960 -4965 0
-4960 -4966 0
-4960 -4967 0
-4960 -4968 0
-4961 -4962 0
-4961 -4963 0
-4961 -4964 0
-4961 -4965 0
-4961 -4966 0
-4961 -4967 0
-4961 -4968 0
-4962 -4963 0
-4962 -4964 0
-4962 -4965 0
-4962 -4966 0
-4962 -4967 0
-4962 -4968 0
-4963 -4964 0
-4963 -4965 0
-4963 -4966 0
-4963 -4967 0
-4963 -4968 0
-4964 -4965 0
-4964 -4966 0
-4964 -4967 0
-4964 -4968 0
-4965 -4966 0
-4965 -4967 0
-4965 -4968 0
-4966 -4967 0
-4966 -4968 0
-4967 -4968 0
